8852
1 1 0 0 0 1 0 0 1 1 0 0 1 1 1 0 0 1 0 0 
1 1 1 1 1 1 1 0 0 0 0 0 0 0 0 8 8 8 8 8 8 5 5 5 5 5 5 5 5 5 5 8 5 5 5 5 5 5 9 9 9 9 9 9 9 12 12 12 12 13 12 13 13 12 13 13 13 13 13 13 13 13 13 13 14 14 14 14 14 17 17 17 17 17 17 17 17 17 17 17 
